c solution = 6
p edge 10 24
e 1 2 1
e 1 3 1
e 1 5 1
e 1 6 1
e 1 7 1
e 1 8 1
e 1 9 1
e 1 10 1
e 2 3 1
e 2 5 1
e 2 6 1
e 2 7 1
e 2 8 1
e 2 9 1
e 2 10 1
e 3 6 1
e 3 7 1
e 3 9 1
e 4 8 1
e 5 10 1
e 6 7 1
e 6 9 1
e 6 10 1
e 7 9 1
